This is Ipopt version 3.10.0, running with linear solver ma27.

Number of nonzeros in equality constraint Jacobian...:        0
Number of nonzeros in inequality constraint Jacobian.:       48
Number of nonzeros in Lagrangian Hessian.............:        0

Total number of variables............................:        6
                     variables with only lower bounds:        3
                variables with lower and upper bounds:        3
                     variables with only upper bounds:        0
Total number of equality constraints.................:        0
Total number of inequality constraints...............:        8
        inequality constraints with only lower bounds:        0
   inequality constraints with lower and upper bounds:        0
        inequality constraints with only upper bounds:        8

iter    objective    inf_pr   inf_du lg(mu)  ||d||  lg(rg) alpha_du alpha_pr  ls
   0  3.8436502e+00 3.01e+00 1.25e+00   0.0 0.00e+00    -  0.00e+00 0.00e+00   0
   1  5.5941509e+00 1.02e+00 5.33e+00  -0.3 2.38e+00    -  6.09e-01 1.00e+00f  1
   2  6.5189949e+00 3.41e-01 2.04e+00  -0.3 1.04e+00    -  8.53e-01 8.98e-01h  1
   3  6.8018286e+00 2.41e-01 1.86e+00  -0.9 3.94e-01    -  9.45e-01 5.78e-01h  1
   4  6.2762515e+00 6.58e-01 2.20e+01  -1.5 8.93e-01    -  1.00e+00 8.71e-01H  1
   5  6.0916079e+00 4.28e-01 1.27e+00  -1.0 3.85e-01    -  1.00e+00 9.16e-01f  1
   6  6.7503708e+00 1.41e-02 3.74e+00  -0.8 4.05e-01    -  3.49e-01 1.00e+00h  1
   7  6.5329532e+00 2.58e-04 3.30e+00  -2.2 1.39e-01    -  9.99e-01 9.24e-01h  1
   8  6.1919015e+00 1.61e-02 3.30e+00  -2.8 1.05e+00    -  1.00e+00 1.82e-01f  1
   9  6.1346571e+00 3.46e-02 7.03e+00  -2.4 6.26e-02    -  1.00e+00 4.60e-01h  1
iter    objective    inf_pr   inf_du lg(mu)  ||d||  lg(rg) alpha_du alpha_pr  ls
  10  6.1370534e+00 0.00e+00 1.24e+00  -2.4 2.63e-02    -  9.99e-01 1.00e+00h  1
  11  6.0412113e+00 4.66e-02 7.75e-01  -3.0 9.34e-02    -  1.00e+00 5.59e-01h  1
  12  6.2589618e+00 0.00e+00 1.03e+00  -1.7 1.02e-01    -  1.00e+00 1.00e+00f  1
  13  6.2269978e+00 1.30e-02 7.59e-01  -1.8 3.74e-02    -  1.00e+00 1.00e+00h  1
  14  6.1745876e+00 0.00e+00 7.63e-01  -2.9 3.05e-02    -  1.00e+00 7.82e-01h  1
  15  6.1481680e+00 2.09e-02 2.28e+00  -3.7 1.69e-02    -  1.00e+00 9.43e-01h  1
  16  6.0446795e+00 6.25e-02 2.95e+00  -1.8 3.78e-01    -  1.00e+00 4.90e-01f  1
  17  6.0703540e+00 1.80e-02 4.02e+00  -2.0 2.69e-01    -  7.10e-02 2.12e-01h  1
  18  6.2234271e+00 0.00e+00 1.50e+00  -2.6 9.13e-02    -  9.60e-01 1.00e+00H  1
  19  6.1993342e+00 0.00e+00 2.44e+00  -2.5 5.51e-02    -  9.39e-01 1.54e-01h  1
iter    objective    inf_pr   inf_du lg(mu)  ||d||  lg(rg) alpha_du alpha_pr  ls
  20  6.1475371e+00 2.93e-02 2.43e+00  -2.5 5.30e-01    -  1.00e+00 7.04e-02f  1
  21  6.1400316e+00 2.53e-02 2.07e+00  -2.5 3.98e-02    -  1.00e+00 1.00e+00f  1
  22  6.1101791e+00 3.51e-02 2.30e+00  -2.3 2.79e-02    -  1.00e+00 7.46e-01h  1
  23  6.1642459e+00 3.19e-02 1.99e+00  -2.4 5.75e-02    -  6.73e-01 9.38e-01h  1
  24  6.2561888e+00 0.00e+00 4.04e+00  -2.4 7.13e-02    -  6.79e-01 7.91e-01h  1
  25  6.1336636e+00 2.23e-02 5.65e+00  -2.4 9.51e-02    -  1.00e+00 1.00e+00f  1
  26  6.1532554e+00 1.76e-02 1.82e+00  -1.9 5.20e-02    -  5.68e-01 1.00e+00h  1
  27  6.1833263e+00 1.29e-02 1.75e+00  -2.4 3.39e-02    -  1.00e+00 1.00e+00h  1
  28  6.1839972e+00 1.10e-02 1.69e+00  -2.6 1.82e-02    -  1.00e+00 2.50e-01h  3
  29  6.1574071e+00 4.88e-02 2.08e+00  -2.6 6.15e-02    -  1.00e+00 9.90e-01h  1
iter    objective    inf_pr   inf_du lg(mu)  ||d||  lg(rg) alpha_du alpha_pr  ls
  30  6.1409741e+00 6.00e-02 4.17e+00  -2.6 2.04e-01    -  4.14e-01 2.86e-01h  1
  31  6.0417072e+00 9.59e-03 4.70e+00  -2.6 2.06e-01    -  8.75e-01 3.89e-01f  1
  32  6.0426227e+00 2.90e-02 6.12e+00  -3.6 3.04e-02    -  1.00e+00 3.80e-02H  1
  33  6.0417713e+00 4.54e-02 5.10e+00  -9.2 5.61e-02    -  3.45e-01 5.30e-02h  1
  34  6.0570580e+00 1.31e-02 1.03e+01  -3.2 5.69e-02    -  7.34e-03 1.84e-01h  1
  35  6.0682930e+00 3.67e-02 4.06e+00  -3.2 2.86e-02    -  3.82e-01 1.66e-01h  1
  36  6.1165750e+00 2.48e-02 3.19e+00  -3.2 7.50e-02    -  1.00e+00 1.00e+00H  1
  37  6.0450000e+00 4.09e-02 3.42e+00  -3.2 1.08e+00    -  8.32e-01 4.05e-02F  1
  38  6.0453044e+00 3.94e-02 3.06e+00  -3.2 5.22e-02    -  1.55e-02 2.08e-02h  1
  39  6.0451347e+00 3.32e-02 3.07e+01  -3.2 1.29e-01    -  3.05e-01 2.34e-03h  4
iter    objective    inf_pr   inf_du lg(mu)  ||d||  lg(rg) alpha_du alpha_pr  ls
  40  6.0494586e+00 1.56e-02 2.56e+01  -3.2 4.08e-02    -  2.62e-01 2.50e-01h  3
